 NOTE: Siesta V5 introduces some new defaults for basis-set generation
 NOTE: which might lead to slightly different numerical results.
 NOTE: Please see the manual for full details and compatibility measures.

reinit: Reading from standard input
reinit: Dumping input in INPUT_TMP.54571
************************** Dump of input data file ****************************
NumberOfAtoms 72
%block LatticeVectors
   24.1507000314950417  -13.9434131260470515    0.0000000000000000
   24.1507000314950417   13.9434131260470515    0.0000000000000000
    0.0000000000000000    0.0000000000000000   37.7945227409938056
%endblock LatticeVectors
AtomicCoordinatesFormat  Fractional
NumberOfSpecies 1
%block ChemicalSpeciesLabel
 1 6 C
%endblock ChemicalSpeciesLabel
LatticeConstant 1.0 Bohr
%block AtomicCoordinatesAndAtomicSpecies
   0.0004258114122713   0.0000000000000000   0.0004258114122713 1
   0.1666666666666667   0.0000000000000000   0.0000000000000000 1
   0.3333333333333333   0.0000000000000000   0.0000000000000000 1
   0.5000000000000000   0.0000000000000000   0.0000000000000000 1
   0.6666666666666666   0.0000000000000000   0.0000000000000000 1
   0.8333333333333333   0.0000000000000000   0.0000000000000000 1
   0.0000000000000000   0.1666666666666667   0.0000000000000000 1
   0.1666666666666667   0.1666666666666667   0.0000000000000000 1
   0.3333333333333333   0.1666666666666667   0.0000000000000000 1
   0.5000000000000000   0.1666666666666667   0.0000000000000000 1
   0.6666666666666666   0.1666666666666667   0.0000000000000000 1
   0.8333333333333333   0.1666666666666667   0.0000000000000000 1
   0.0000000000000000   0.3333333333333333   0.0000000000000000 1
   0.1666666666666667   0.3333333333333333   0.0000000000000000 1
   0.3333333333333333   0.3333333333333333   0.0000000000000000 1
   0.5000000000000001   0.3333333333333334   0.0000000000000000 1
   0.6666666666666666   0.3333333333333334   0.0000000000000000 1
   0.8333333333333334   0.3333333333333334   0.0000000000000000 1
   0.0000000000000000   0.5000000000000000   0.0000000000000000 1
   0.1666666666666667   0.5000000000000000   0.0000000000000000 1
   0.3333333333333334   0.5000000000000001   0.0000000000000000 1
   0.5000000000000000   0.5000000000000000   0.0000000000000000 1
   0.6666666666666666   0.5000000000000001   0.0000000000000000 1
   0.8333333333333333   0.5000000000000000   0.0000000000000000 1
   0.0000000000000000   0.6666666666666666   0.0000000000000000 1
   0.1666666666666666   0.6666666666666666   0.0000000000000000 1
   0.3333333333333333   0.6666666666666666   0.0000000000000000 1
   0.5000000000000000   0.6666666666666667   0.0000000000000000 1
   0.6666666666666666   0.6666666666666666   0.0000000000000000 1
   0.8333333333333334   0.6666666666666666   0.0000000000000000 1
   0.0000000000000000   0.8333333333333333   0.0000000000000000 1
   0.1666666666666667   0.8333333333333333   0.0000000000000000 1
   0.3333333333333334   0.8333333333333334   0.0000000000000000 1
   0.5000000000000000   0.8333333333333333   0.0000000000000000 1
   0.6666666666666666   0.8333333333333334   0.0000000000000000 1
   0.8333333333333333   0.8333333333333333   0.0000000000000000 1
   0.0555164319248826   0.0555164319248826   0.0000000000000000 1
   0.2221830985915493   0.0555164319248827   0.0000000000000000 1
   0.3888497652582160   0.0555164319248826   0.0000000000000000 1
   0.5555164319248826   0.0555164319248827   0.0000000000000000 1
   0.7221830985915493   0.0555164319248827   0.0000000000000000 1
   0.8888497652582159   0.0555164319248827   0.0000000000000000 1
   0.0555164319248827   0.2221830985915493   0.0000000000000000 1
   0.2221830985915493   0.2221830985915493   0.0000000000000000 1
   0.3888497652582160   0.2221830985915493   0.0000000000000000 1
   0.5555164319248826   0.2221830985915494   0.0000000000000000 1
   0.7221830985915493   0.2221830985915493   0.0000000000000000 1
   0.8888497652582159   0.2221830985915494   0.0000000000000000 1
   0.0555164319248826   0.3888497652582160   0.0000000000000000 1
   0.2221830985915493   0.3888497652582160   0.0000000000000000 1
   0.3888497652582160   0.3888497652582160   0.0000000000000000 1
   0.5555164319248826   0.3888497652582160   0.0000000000000000 1
   0.7221830985915492   0.3888497652582159   0.0000000000000000 1
   0.8888497652582159   0.3888497652582160   0.0000000000000000 1
   0.0555164319248827   0.5555164319248826   0.0000000000000000 1
   0.2221830985915494   0.5555164319248826   0.0000000000000000 1
   0.3888497652582160   0.5555164319248826   0.0000000000000000 1
   0.5555164319248828   0.5555164319248828   0.0000000000000000 1
   0.7221830985915492   0.5555164319248826   0.0000000000000000 1
   0.8888497652582160   0.5555164319248828   0.0000000000000000 1
   0.0555164319248827   0.7221830985915493   0.0000000000000000 1
   0.2221830985915494   0.7221830985915492   0.0000000000000000 1
   0.3888497652582161   0.7221830985915492   0.0000000000000000 1
   0.5555164319248826   0.7221830985915492   0.0000000000000000 1
   0.7221830985915492   0.7221830985915492   0.0000000000000000 1
   0.8888497652582160   0.7221830985915493   0.0000000000000000 1
   0.0555164319248827   0.8888497652582159   0.0000000000000000 1
   0.2221830985915494   0.8888497652582159   0.0000000000000000 1
   0.3888497652582160   0.8888497652582159   0.0000000000000000 1
   0.5555164319248828   0.8888497652582160   0.0000000000000000 1
   0.7221830985915492   0.8888497652582159   0.0000000000000000 1
   0.8888497652582160   0.8888497652582160   0.0000000000000000 1
%endblock AtomicCoordinatesAndAtomicSpecies
************************** End of input data file *****************************

reinit: -----------------------------------------------------------------------
reinit: System Name:
reinit: -----------------------------------------------------------------------
reinit: System Label: siesta
reinit: -----------------------------------------------------------------------

initatom: Reading input for the pseudopotentials and atomic orbitals ----------
Species number:   1 Atomic number:    6 Label: C

Ground state valence configuration (from tables):   2s02  2p02  3d00  4f00

---- Processing specs for species: C
Reading pseudopotential information in PSML from:
  C.psml
PSML file version: 1.1
GGA--PBE XC_GGA_X_PBE--XC_GGA_C_PBE pb
PSML uuid: 297821e0-be41-11e7-6802-e1ff7dfff095

---- Pseudopotential check for C

Pseudized shells:
2s( 2.00) rc: 1.20
2p( 2.00) rc: 1.26
Valence configuration for ps generation: 2s:2p: Total charge:   4.000000
For C, standard SIESTA heuristics set lmxkb to 3
 (one more than the basis l, including polarization orbitals).
Use PS.lmax or PS.KBprojectors blocks to override.
C pseudopotential only contains V_ls up to l=1 -- lmxkb reset.

<basis_specs>
C                    Z=   6    Mass=  12.011        Charge= 0.17977+309
Lmxo=2 Lmxkb= 1    BasisType=split      Semic=F
L=0  Nsemic=0  Cnfigmx=2
          i=1  nzeta=2  polorb=0  (2s)
            splnorm:   0.15000
               vcte:    40.000
               rinn:  -0.90000
               qcoe:    0.0000
               qyuk:    0.0000
               qwid:   0.10000E-01
                rcs:    0.0000      0.0000
            lambdas:    1.0000      1.0000
L=1  Nsemic=0  Cnfigmx=2
          i=1  nzeta=2  polorb=1  (2p)  (to be polarized perturbatively)
            splnorm:   0.15000
               vcte:    40.000
               rinn:  -0.90000
               qcoe:    0.0000
               qyuk:    0.0000
               qwid:   0.10000E-01
                rcs:    0.0000      0.0000
            lambdas:    1.0000      1.0000
L=2  Nsemic=0  Cnfigmx=3
          i=1  nzeta=0  polorb=0  (3d)  (perturbative polarization orbital) (from 2p)
L=0  Nkbl=1  erefs: 0.17977+309
L=1  Nkbl=1  erefs: 0.17977+309
</basis_specs>

Using PAO.SplitTailNorm
atom: Called for C                     (Z =   6)
NOTE: C pseudopotential has channels up to l= 1
NOTE: PAOs with higher l will be generated with V_local
Maximum radius (at nrval) set to   50.00000 8518

read_vps: Pseudopotential generation method:
read_vps: ONCVPSP-3.Hamann's oncvpsp
Valence charge in pseudo generation:    4.00000

read_vps: Pseudopotential includes a core correction:
read_vps: Pseudo-core for xc-correction

xc_check: Exchange-correlation functional:
xc_check: Ceperley-Alder
xc_check: WARNING: Pseudopotential generated with GGA PBE functional
Got Vlocal (oncv-fit) from psml data
Choosing vlocal chloc cutoff:  4.122282
qtot up to nchloc:    4.00001153
atom: Maximum radius for chlocal:    4.12228
atom: Maximum radius for r*vlocal+2*Zval:    4.12228
Reading KB projs from C psml data
Using scalar-relativistic projectors in PSML file

PSML: Kleinman-Bylander projectors:
   l= 0   rc=  1.219773   Ekb= 12.963096
   l= 0   rc=  1.219773   Ekb=  0.771007
   l= 1   rc=  1.278952   Ekb= -8.399923
   l= 1   rc=  1.278952   Ekb= -1.755033

PSML: Total number of  Kleinman-Bylander projectors:   8
atom: -------------------------------------------------------------------------

atom: SANKEY-TYPE ORBITALS:
atom: Selected multiple-zeta basis: split

SPLIT: Orbitals with angular momentum L= 0

SPLIT: Basis orbitals for state 2s

SPLIT: PAO cut-off radius determined from an
SPLIT: energy shift=  0.010000 Ry
Split based on tail norm

   izeta = 1
                 lambda =    1.000000
                     rc =    4.511437
                 energy =   -0.989254
                kinetic =    0.946651
    potential(screened) =   -1.935906
       potential(ionic) =   -5.498495

   izeta = 2
                 rmatch =    3.075858
              splitnorm =    0.150000
                 energy =   -0.701003
                kinetic =    1.771761
    potential(screened) =   -2.472764
       potential(ionic) =   -6.339278

SPLIT: Orbitals with angular momentum L= 1

SPLIT: Basis orbitals for state 2p

SPLIT: PAO cut-off radius determined from an
SPLIT: energy shift=  0.010000 Ry
Split based on tail norm

   izeta = 1
                 lambda =    1.000000
                     rc =    5.490449
                 energy =   -0.369684
                kinetic =    2.448131
    potential(screened) =   -2.817815
       potential(ionic) =   -6.235458

   izeta = 2
                 rmatch =    3.744030
              splitnorm =    0.150000
                 energy =   -0.242059
                kinetic =    3.581876
    potential(screened) =   -3.823934
       potential(ionic) =   -7.591917
*Note: V_local used for l= 2

** Using vlocal for PAOs with L= 2

POLgen: Perturbative polarization orbital with L=  2

POLgen: Polarization orbital for state 2p
*Note: V_local used for lpol= 2

** Using vlocal for PAOs with L= 2
Split based on tail norm

   izeta = 1
                     rc =    5.490449
                 energy =    1.132297
                kinetic =    2.236883
    potential(screened) =   -1.104586
       potential(ionic) =   -3.924940
atom: Total number of Sankey-type orbitals: 13

atm_pop: Valence configuration (for local Pseudopot. screening):
 2s( 2.00)
 2p( 2.00)
 3d( 0.00)
Vna: chval, zval:    4.00000   4.00000

Vna:  Cut-off radius for the neutral-atom potential:   5.490449
[...]
redata: Spin spiral                                 = F
redata: Long output                                 =   F
redata: Number of Atomic Species                    =        1
redata: Charge density info will appear in .RHO file
redata: Write Mulliken charges (when)               = none
redata: Write Mulliken Pop.                         = NO
redata: Write Hirshfeld charges (when)              = none
redata: Write Voronoi charges (when)                = none
redata: Write spin charge (when)                    = none
redata: Matel table size (NRTAB)                    =     1024
redata: Mesh Cutoff                                 =   300.0000 Ry
redata: Net charge of the system                    =     0.0000 |e|
redata: Min. number of SCF Iter                     =        0
redata: Max. number of SCF Iter                     =     1000
redata: SCF convergence failure will abort job
redata: SCF mix quantity                            = Hamiltonian
redata: Mix DM or H after convergence               =   F
redata: Recompute H after scf cycle                 =   F
redata: Mix DM in first SCF step                    =   T
redata: Write Pulay info on disk                    =   F
redata: New DM Occupancy tolerance                  = 0.000000000001
redata: No kicks to SCF
redata: DM Mixing Weight for Kicks                  =     0.5000
redata: Require Harris convergence for SCF          =   F
redata: Harris energy tolerance for SCF             =     0.000100 eV
redata: Require DM convergence for SCF              =   T
redata: DM tolerance for SCF                        =     0.000100
redata: Require EDM convergence for SCF             =   F
redata: EDM tolerance for SCF                       =     0.001000 eV
redata: Require H convergence for SCF               =   T
redata: Hamiltonian tolerance for SCF               =     0.001000 eV
redata: Require (free) Energy convergence for SCF   =   F
redata: (free) Energy tolerance for SCF             =     0.000100 eV
redata: Using DFT-D3 dispersion                     =   F
redata: Using Saved Data (generic)                  =   F
redata: Use continuation files for DM               =   T
redata: Neglect nonoverlap interactions             =   F
redata: Method of Calculation                       = Diagonalization
redata: Electronic Temperature                      =   299.9863 K
redata: Fix the spin of the system                  =   F
redata: Max. number of TDED Iter                    =        1
redata: Number of TDED substeps                     =        3
redata: Dynamics option                             = Single-point calculation
mix.SCF: Pulay mixing                            = Pulay
mix.SCF:    Variant                              = stable
mix.SCF:    History steps                        = 2
mix.SCF:    Linear mixing weight                 =     0.250000
mix.SCF:    Mixing weight                        =     0.250000
mix.SCF:    SVD condition                        = 0.1000E-07
redata: Save all siesta data in one NC              =   F
redata: ***********************************************************************

%block SCF.Mixers
  Pulay
%endblock SCF.Mixers

%block SCF.Mixer.Pulay
  # Mixing method
  method pulay
  variant stable

  # Mixing options
  weight 0.2500
  weight.linear 0.2500
  history 2
%endblock SCF.Mixer.Pulay

DM_history_depth set to one: no extrapolation allowed by default for geometry relaxation
Size of DM history Fstack: 1
Total number of electrons:   288.000000
Total ionic charge:   288.000000

siesta: k-grid: Number of k-points = 1
siesta: k-point is Gamma-only

diag: Algorithm                                     = D&C
diag: Used triangular part                          = Lower
diag: Absolute tolerance                            =  0.100E-15
diag: Orthogonalization factor                      =  0.100E-05

ts: **************************************************************
ts: Save H and S matrices                           =    F
ts: Save DM and EDM matrices                        =    F
ts: Only save the overlap matrix S                  =    F
ts: **************************************************************

************************ Begin: TS CHECKS AND WARNINGS ************************
************************ End: TS CHECKS AND WARNINGS **************************

                        Single-point calculation

outcell: Unit cell vectors (Ang):
       12.780000   -7.378536    0.000000
       12.780000    7.378536    0.000000
        0.000000    0.000000   20.000000

outcell: Cell vector modules (Ang)   :   14.757073   14.757073   20.000000
outcell: Cell angles (23,13,12) (deg):     90.0000     90.0000     60.0000
outcell: Cell volume (Ang**3)        :   3771.9079
<dSpData1D:S at geom step 0
  <sparsity:sparsity for geom step 0
    nrows_g=936 nrows=936 sparsity=.4961 nnzs=434664, refcount: 7>
  <dData1D:(new from dSpData1D) n=434664, refcount: 1>
refcount: 1>
new_DM -- step:     1
Initializing Density Matrix...

Attempting to read DM from file... Failed...
DM filled with atomic data:
<dSpData2D:DM initialized from atoms
  <sparsity:sparsity for geom step 0
    nrows_g=936 nrows=936 sparsity=.4961 nnzs=434664, refcount: 8>
  <dData2D:DM n=434664 m=1, refcount: 1>
refcount: 1>
No. of atoms with KB's overlaping orbs in proc 0. Max # of overlaps:      72     151

InitMesh: MESH = 144 x 144 x 216 = 4478976
InitMesh: Mesh cutoff (required, used) =   300.000   322.366 Ry
New grid distribution [1]: sub = 2

stepf: Fermi-Dirac step function

siesta: Program's energy decomposition (eV):
siesta: Ebs     =     -3545.980825
siesta: Eions   =     20315.643750
siesta: Ena     =      5427.978892
siesta: Ekin    =      8261.544418
siesta: Enl     =      -441.476703
siesta: Eso     =         0.000000
siesta: Edftu   =         0.000000
siesta: DEna    =      -502.484183
siesta: DUscf   =        38.732263
siesta: DUext   =         0.000000
siesta: Ex      =     -3698.069904
siesta: Ec      =      -500.593505
siesta: Exc     =     -4198.663409
siesta: EbV     =         0.000000
siesta: eta*DQ  =         0.000000
siesta: Emadel  =         0.000000
siesta: Emeta   =         0.000000
siesta: Emolmec =         0.000000
siesta: Ekinion =         0.000000
siesta: Eharris =    -11633.205990
siesta: Etot    =    -11730.012473
siesta: FreeEng =    -11730.153018

SCF Convergence by DM+H criterion
max |DM_out - DM_in|         :     0.0000415957
max |H_out - H_in|      (eV) :     0.0008417836
SCF cycle converged after 16 iterations

Using DM_out to compute the final energy and forces
No. of atoms with KB's overlaping orbs in proc 0. Max # of overlaps:      72     151

siesta: E_KS(eV) =           -11736.5674

siesta: E_KS - E_eggbox =    -11736.5674

siesta: Atomic forces (eV/Ang):
   Tot    0.009192    0.000673   -0.000002
   Max    0.342980
   Res    0.037220    sqrt( Sum f_i^2 / 3N )
   Max    0.342980    constrained

Stress tensor Voigt[x,y,z,yz,xz,xy] (kbar):      -24.60      -26.70        0.03       -0.00        0.00        0.08
(Free)E + p*V (eV/cell)   -11696.4783
Target enthalpy (eV/cell)   -11736.7090

siesta: Program's energy decomposition (eV):
siesta: Ebs     =     -3882.125246
siesta: Eions   =     20315.643750
siesta: Ena     =      5427.978892
siesta: Ekin    =      8016.395867
siesta: Enl     =      -395.809234
siesta: Eso     =         0.000000
siesta: Edftu   =         0.000000
siesta: DEna    =      -338.651944
siesta: DUscf   =        23.282223
siesta: DUext   =         0.000000
siesta: Ex      =     -3655.832096
siesta: Ec      =      -498.287375
siesta: Exc     =     -4154.119471
siesta: EbV     =         0.000000
siesta: eta*DQ  =         0.000000
siesta: Emadel  =         0.000000
siesta: Emeta   =         0.000000
siesta: Emolmec =         0.000000
siesta: Ekinion =         0.000000
siesta: Eharris =    -11736.567416
siesta: Etot    =    -11736.567417
siesta: FreeEng =    -11736.708989

siesta: Final energy (eV):
siesta:  Band Struct. =   -3882.125246
siesta:       Kinetic =    8016.395867
siesta:       Hartree =   55783.273707
siesta:         Edftu =       0.000000
siesta:       Eso     =       0.000000
siesta:    Ext. field =       0.000000
siesta:         Exch. =   -3655.832096
siesta:         Corr. =    -498.287375
siesta:     Bulk bias =       0.000000
siesta:   Exch.-corr. =   -4154.119471
siesta:  Ion-electron = -118881.339093
siesta:       Ion-ion =   47499.221573
siesta:       Ekinion =       0.000000
siesta: D3 dispersion =       0.000000
siesta:         Total =  -11736.567417
siesta:         Fermi =      -4.273125

siesta: Atomic forces (eV/Ang):
siesta:      1   -0.342980    0.203275   -0.105049
siesta:      2    0.042263   -0.028964   -0.003601
siesta:      3    0.029529    0.005761   -0.000183
siesta:      4    0.041764   -0.013806    0.000069
siesta:      5    0.018626   -0.013267   -0.000189
siesta:      6    0.054692   -0.006593   -0.003348
siesta:      7    0.035716    0.026794   -0.003482
siesta:      8    0.045314   -0.014140    0.000616
siesta:      9    0.018833   -0.013652   -0.000063
siesta:     10    0.029767    0.005847   -0.000071
siesta:     11    0.043314   -0.016239    0.000653
siesta:     12    0.003239   -0.028084   -0.003523
siesta:     13    0.017782   -0.011618   -0.000188
siesta:     14    0.029994    0.006565   -0.000063
siesta:     15    0.042936   -0.014339    0.000048
siesta:     16    0.018339   -0.013637   -0.000067
siesta:     17    0.028237    0.006210   -0.000166
siesta:     18    0.042215   -0.014448    0.000647
siesta:     19    0.041752   -0.013753    0.000068
siesta:     20    0.018271   -0.013182   -0.000070
siesta:     21    0.029592    0.006446   -0.000066
siesta:     22    0.042188   -0.013735    0.000066
siesta:     23    0.018205   -0.013460   -0.000065
siesta:     24    0.029481    0.006417   -0.000071
siesta:     25    0.028615    0.007340   -0.000191
siesta:     26    0.042482   -0.013984    0.000647
siesta:     27    0.017091   -0.013292   -0.000163
siesta:     28    0.029706    0.006233   -0.000067
siesta:     29    0.042935   -0.014340    0.000048
siesta:     30    0.018672   -0.013226   -0.000063
siesta:     31    0.022963    0.004438   -0.003355
siesta:     32    0.015663   -0.006302   -0.003647
siesta:     33    0.043528   -0.015830    0.000655
siesta:     34    0.018545   -0.013765   -0.000071
siesta:     35    0.030181    0.006180   -0.000062
siesta:     36    0.045372   -0.014076    0.000613
siesta:     37    0.134687   -0.030579    0.045038
siesta:     38   -0.021784   -0.003434   -0.004150
siesta:     39   -0.029168    0.020041    0.000294
siesta:     40   -0.040738    0.000368    0.000232
siesta:     41   -0.016695    0.005313   -0.004333
siesta:     42    0.082006   -0.110853    0.046474
siesta:     43   -0.035369    0.019976   -0.004145
siesta:     44   -0.043530    0.000437    0.000507
siesta:     45   -0.018475    0.000439   -0.000134
siesta:     46   -0.030436    0.021692    0.000565
siesta:     47   -0.043368    0.004620   -0.004141
siesta:     48   -0.007754   -0.005305    0.003080
siesta:     49   -0.017832    0.000164    0.000288
siesta:     50   -0.030166    0.020748   -0.000132
siesta:     51   -0.042022    0.000306   -0.000128
siesta:     52   -0.017958   -0.000016    0.000215
siesta:     53   -0.029034    0.020814   -0.000054
siesta:     54   -0.040987   -0.000587   -0.000106
siesta:     55   -0.040695    0.000296    0.000238
siesta:     56   -0.018111    0.000119    0.000555
siesta:     57   -0.029450    0.020045    0.000227
siesta:     58   -0.041494    0.000283   -0.000005
siesta:     59   -0.018030    0.000175    0.000007
siesta:     60   -0.029522    0.020111   -0.000005
siesta:     61   -0.025074    0.019980   -0.004309
siesta:     62   -0.038835   -0.003273   -0.004123
siesta:     63   -0.017551    0.000723   -0.000059
siesta:     64   -0.029958    0.020986    0.000008
siesta:     65   -0.042048    0.000284    0.000008
siesta:     66   -0.018460   -0.000841   -0.000087
siesta:     67    0.036109   -0.030517    0.045661
siesta:     68   -0.026395    0.027216    0.003051
siesta:     69   -0.041990    0.001164   -0.000105
siesta:     70   -0.018181    0.000409   -0.000006
siesta:     71   -0.030805    0.020824   -0.000081
siesta:     72   -0.046515   -0.005224    0.003405
siesta: ----------------------------------------
siesta:    Tot    0.009192    0.000673   -0.000002

siesta: Stress tensor (static) (eV/Ang**3):
siesta:    -0.015352    0.000050    0.000001
siesta:     0.000050   -0.016663   -0.000000
siesta:     0.000001   -0.000000    0.000018

siesta: Cell volume =       3771.907892 Ang**3

siesta: Pressure (static):
siesta:                Solid            Molecule  Units
siesta:           0.00011617          0.00011441  Ry/Bohr**3
siesta:           0.01066587          0.01050429  eV/Ang**3
siesta:          17.08860428         16.82972605  kBar
(Free)E+ p_basis*V_orbitals  =      -11708.567943
(Free)Eharris+ p_basis*V_orbitals  =      -11708.567942

siesta: Electric dipole (a.u.)  =   -0.000000   -0.000000   -0.000001
siesta: Electric dipole (Debye) =   -0.000000   -0.000000   -0.000002

cite: Please see "siesta.bib" for an exhaustive BiBTeX file.
cite: Please clearly indicate Siesta version in published work: 5.2.1
cite: This calculation has made use of the following articles
cite: which are encouraged to be cited in a published work.
        Primary SIESTA paper
          DOI: www.doi.org/10.1088/0953-8984/14/11/302

Routine            Calls   Time/call    Tot.time        %
siesta                 1     116.860     116.860   100.00
Setup                  1       1.006       1.006     0.86
bands                  1       0.000       0.000     0.00
KSV_init               1       0.000       0.000     0.00
IterGeom               1     115.841     115.841    99.13
geom_init              1       8.072       8.072     6.91
state_init             1       0.218       0.218     0.19
hsparse                1       0.062       0.062     0.05
overlap                1       0.133       0.133     0.11
Setup_H0               1       4.024       4.024     3.44
naefs                  2       0.000       0.001     0.00
dnaefs                 2       0.000       0.000     0.00
MolMec                 2       0.000       0.000     0.00
kinefsm                2       0.105       0.211     0.18
nlefsm                 2       0.132       0.263     0.23
DHSCF_Init             1       3.768       3.768     3.22
DHSCF1                 1       0.025       0.025     0.02
InitMesh               1       0.025       0.025     0.02
INITMESH               1       0.000       0.000     0.00
DHSCF2                 1       3.742       3.742     3.20
REMESH                 1       0.194       0.194     0.17
REORD                 51       0.006       0.291     0.25
PHION                  1       2.982       2.982     2.55
COMM_BSC              75       0.004       0.307     0.26
POISON                19       0.226       4.300     3.68
fft                   38       0.086       3.287     2.81
setup_H               17       3.891      66.143    56.60
DHSCF                 18       4.414      79.445    67.98
DHSCF3                18       3.886      69.952    59.86
rhoofd                18       2.004      36.075    30.87
XC                    18       0.132       2.375     2.03
GXC-CellXC            18       0.109       1.953     1.67
gridxc@cellXC         18       0.108       1.953     1.67
vmat                  18       1.427      25.679    21.97
IterSCF               16       5.881      94.097    80.52
compute_dm            16       1.980      31.672    27.10
diagon                16       1.978      31.654    27.09
r-eigvec              16       0.937      14.985    12.82
r-buildHS             16       0.002       0.025     0.02
rdiag                 16       0.935      14.960    12.80
rdiag1                16       0.027       0.437     0.37
rdiag2                16       0.118       1.881     1.61
rdiag3                16       0.726      11.623     9.95
rdiag4                16       0.060       0.959     0.82
r-buildD              16       1.028      16.449    14.08
MIXER                 15       0.003       0.050     0.04
PostSCF                1      13.671      13.671    11.70
FINAL_HF               1      13.671      13.671    11.70
DHSCF4                 1       9.493       9.493     8.12
dfscf                  1       9.080       9.080     7.77
overfsm                1       0.080       0.080     0.07
writeHSX               1       0.003       0.003     0.00
state_analysis         1       0.000       0.000     0.00
siesta_move            1       0.000       0.000     0.00
Analysis               1       0.002       0.002     0.00
optical                1       0.000       0.000     0.00

>> End of run:  17-JUN-2025  17:28:47
Job completed